NAME : rnd46_50.tsp.tsp.optbc.tour
TYPE : TOUR
DIMENSION : 50
TOUR_SECTION
1
45
39
19
25
47
15
6
12
7
41
21
9
49
48
3
44
42
10
30
26
40
24
29
23
28
22
16
36
5
32
34
50
27
14
18
43
33
37
31
2
8
35
38
13
46
4
17
20
11
-1